data;
param Title := pinus;
param start := 13_0_R;
set V :=
6_0_F
7_0_F
17_0_R
24_0_R
25_0_R
2_0_R
3_0_F
15_0_R
13_0_R
21_0_F
22_0_R
21_1_F
23_0_R
24_1_F
14_0_F
15_1_F
;
set O :=
6_0_F	7_0_F
7_0_F	17_0_R
17_0_R	24_0_R
24_0_R	25_0_R
25_0_R	2_0_R
2_0_R	3_0_F
3_0_F	15_0_R
15_0_R	13_0_R
13_0_R	21_0_F
21_0_F	22_0_R
22_0_R	21_1_F
21_1_F	23_0_R
23_0_R	24_1_F
24_1_F	14_0_F
14_0_F	15_1_F
15_1_F	6_0_F
;
set L :=
25_0_R	3_0_F
25_0_R	2_0_R
3_0_F	13_0_R
23_0_R	6_0_F
22_0_R	6_0_F
22_0_R	23_0_R
13_0_R	22_0_R
6_0_F	7_0_F
17_0_R	25_0_R
17_0_R	2_0_R
7_0_F	17_0_R
2_0_R	3_0_F
;
param l :=
6_0_F	7_0_F	-120.0
7_0_F	17_0_R	-120.0
17_0_R	24_0_R	-120.0
24_0_R	25_0_R	-120.0
25_0_R	2_0_R	-120.0
2_0_R	3_0_F	-120.0
3_0_F	15_0_R	-120.0
15_0_R	13_0_R	-120.0
13_0_R	21_0_F	-120.0
21_0_F	22_0_R	-120.0
22_0_R	21_1_F	-120.0
21_1_F	23_0_R	-120.0
23_0_R	24_1_F	-120.0
24_1_F	14_0_F	-120.0
14_0_F	15_1_F	-120.0
15_1_F	6_0_F	-120.0
;
param w :=
6_0_F	19069.0
7_0_F	9923.0
17_0_R	20493.0
24_0_R	160.0
25_0_R	3345.0
2_0_R	3448.0
3_0_F	8601.0
15_0_R	237.0
13_0_R	40341.0
21_0_F	135.0
22_0_R	11255.0
21_1_F	135.0
23_0_R	894.0
24_1_F	160.0
14_0_F	353.0
15_1_F	237.0
;
param b_inf :=
25_0_R	3_0_F	3077.0
25_0_R	2_0_R	0.0
3_0_F	13_0_R	0.0
23_0_R	6_0_F	160.0
22_0_R	6_0_F	908.0
22_0_R	23_0_R	0.0
13_0_R	22_0_R	0.0
6_0_F	7_0_F	0.0
17_0_R	25_0_R	0.0
17_0_R	2_0_R	3011.0
7_0_F	17_0_R	0.0
2_0_R	3_0_F	0.0
;
param b_sup :=
25_0_R	3_0_F	3349.0
25_0_R	2_0_R	46.0
3_0_F	13_0_R	167.0
23_0_R	6_0_F	366.0
22_0_R	6_0_F	1225.0
22_0_R	23_0_R	0.0
13_0_R	22_0_R	43.0
6_0_F	7_0_F	24.0
17_0_R	25_0_R	68.0
17_0_R	2_0_R	3286.0
7_0_F	17_0_R	44.0
2_0_R	3_0_F	40.0
;
